NAME : X_30_seed_123_id_14
TYPE : CVRP
DIMENSION : 237
EDGE_WEIGHT_TYPE : EUC_2D
CAPACITY : 18
NODE_COORD_SECTION
1	0	0
2	798	832
3	710	420
4	356	682
5	447	605
6	610	835
7	644	528
8	689	23
9	128	969
10	394	620
11	805	998
12	311	607
13	386	659
14	771	845
15	377	489
16	219	454
17	672	441
18	443	469
19	428	131
20	880	731
21	812	986
22	784	839
23	742	369
24	250	161
25	791	662
26	412	468
27	446	592
28	314	182
29	832	321
30	992	182
31	978	943
32	851	134
33	749	562
34	955	93
35	191	535
36	740	980
37	737	621
38	312	250
39	759	854
40	275	389
41	903	38
42	59	14
43	110	967
44	883	394
45	990	302
46	793	590
47	576	781
48	885	366
49	735	920
50	689	869
51	759	805
52	107	745
53	854	522
54	988	583
55	982	459
56	389	134
57	223	891
58	14	615
59	546	911
60	740	328
61	395	996
62	525	727
63	432	837
64	977	531
65	540	759
66	353	907
67	385	651
68	210	713
69	953	154
70	175	659
71	354	849
72	678	80
73	439	664
74	211	702
75	855	25
76	555	38
77	792	134
78	528	627
79	987	549
80	40	275
81	737	421
82	330	349
83	706	654
84	78	578
85	330	98
86	85	401
87	428	998
88	829	124
89	51	274
90	45	39
91	912	885
92	950	46
93	192	802
94	216	648
95	525	953
96	398	850
97	744	622
98	599	106
99	561	991
100	207	310
101	970	458
102	191	982
103	807	298
104	595	121
105	742	194
106	357	17
107	167	727
108	723	141
109	276	276
110	906	556
111	418	621
112	419	939
113	136	1
114	82	417
115	63	53
116	584	210
117	510	894
118	120	208
119	108	401
120	804	786
121	484	90
122	54	747
123	341	146
124	327	969
125	367	828
126	233	281
127	505	553
128	840	196
129	838	637
130	100	302
131	150	495
132	377	304
133	485	371
134	667	290
135	607	499
136	841	13
137	128	756
138	945	202
139	323	292
140	187	837
141	155	208
142	766	84
143	510	169
144	496	497
145	453	788
146	597	329
147	488	963
148	80	118
149	766	531
150	206	793
151	356	630
152	853	166
153	70	568
154	808	783
155	233	278
156	898	246
157	516	712
158	142	921
159	781	297
160	113	416
161	409	450
162	147	914
163	806	816
164	324	990
165	504	403
166	876	612
167	235	404
168	115	336
169	776	210
170	959	564
171	611	876
172	172	503
173	977	606
174	207	720
175	408	535
176	112	463
177	425	281
178	288	933
179	820	279
180	322	599
181	413	455
182	721	516
183	690	564
184	174	377
185	329	766
186	197	623
187	968	389
188	477	300
189	419	270
190	713	592
191	428	6
192	147	852
193	584	329
194	66	539
195	300	713
196	291	966
197	27	549
198	900	486
199	852	187
200	622	452
201	869	52
202	618	929
203	82	507
204	568	922
205	28	952
206	506	729
207	545	153
208	900	189
209	219	823
210	823	69
211	358	15
212	969	842
213	669	91
214	337	82
215	529	866
216	758	405
217	565	431
218	33	404
219	486	558
220	938	550
221	807	362
222	357	989
223	696	906
224	715	248
225	623	971
226	684	281
227	831	469
228	415	957
229	701	489
230	219	793
231	412	999
232	295	50
233	347	959
234	586	317
235	509	919
236	111	948
237	581	248
DEMAND_SECTION
1	0
2	1
3	1
4	1
5	1
6	1
7	1
8	1
9	1
10	1
11	1
12	1
13	1
14	1
15	1
16	1
17	1
18	1
19	1
20	1
21	1
22	1
23	1
24	1
25	1
26	1
27	1
28	1
29	1
30	1
31	1
32	1
33	1
34	1
35	1
36	1
37	1
38	1
39	1
40	1
41	1
42	1
43	1
44	1
45	1
46	1
47	1
48	1
49	1
50	1
51	1
52	1
53	1
54	1
55	1
56	1
57	1
58	1
59	1
60	1
61	1
62	1
63	1
64	1
65	1
66	1
67	1
68	1
69	1
70	1
71	1
72	1
73	1
74	1
75	1
76	1
77	1
78	1
79	1
80	1
81	1
82	1
83	1
84	1
85	1
86	1
87	1
88	1
89	1
90	1
91	1
92	1
93	1
94	1
95	1
96	1
97	1
98	1
99	1
100	1
101	1
102	1
103	1
104	1
105	1
106	1
107	1
108	1
109	1
110	1
111	1
112	1
113	1
114	1
115	1
116	1
117	1
118	1
119	1
120	1
121	1
122	1
123	1
124	1
125	1
126	1
127	1
128	1
129	1
130	1
131	1
132	1
133	1
134	1
135	1
136	1
137	1
138	1
139	1
140	1
141	1
142	1
143	1
144	1
145	1
146	1
147	1
148	1
149	1
150	1
151	1
152	1
153	1
154	1
155	1
156	1
157	1
158	1
159	1
160	1
161	1
162	1
163	1
164	1
165	1
166	1
167	1
168	1
169	1
170	1
171	1
172	1
173	1
174	1
175	1
176	1
177	1
178	1
179	1
180	1
181	1
182	1
183	1
184	1
185	1
186	1
187	1
188	1
189	1
190	1
191	1
192	1
193	1
194	1
195	1
196	1
197	1
198	1
199	1
200	1
201	1
202	1
203	1
204	1
205	1
206	1
207	1
208	1
209	1
210	1
211	1
212	1
213	1
214	1
215	1
216	1
217	1
218	1
219	1
220	1
221	1
222	1
223	1
224	1
225	1
226	1
227	1
228	1
229	1
230	1
231	1
232	1
233	1
234	1
235	1
236	1
237	1
DEPOT_SECTION
1
-1
EOF
